
Gurobi 11.0.3 (linux64) logging started Fri Nov 22 07:19:30 2024

Set parameter LogFile to value "/home/yihong/Coding/OR_SUC/SUC_results_bigM100000_thread4/case24_ieee_rts_theta0.1_epsilon0.05_gurobi_seed460000_num_gen100_N_WDR100_load_scaling_factor1_exact_T20quadra_cost.txt"
Set parameter TimeLimit to value 3600
Gurobi Optimizer version 11.0.3 build v11.0.3rc0 (linux64 - "Ubuntu 20.04.6 LTS")

CPU model: AMD EPYC 7532 32-Core Processor, instruction set [SSE2|AVX|AVX2]
Thread count: 64 physical cores, 128 logical processors, using up to 4 threads

Optimize a model with 47983 rows, 25001 columns and 1104482 nonzeros
Model fingerprint: 0xd2950cba
Model has 2000 quadratic constraints
Variable types: 22901 continuous, 2100 integer (2100 binary)
Coefficient statistics:
  Matrix range     [3e-04, 1e+05]
  QMatrix range    [2e-03, 8e-03]
  QLMatrix range   [4e-02, 6e+01]
  Objective range  [1e+00, 1e+00]
  Bounds range     [1e+00, 1e+00]
  RHS range        [1e+00, 1e+05]
Presolve removed 39104 rows and 10561 columns
Presolve time: 0.34s
Presolved: 8879 rows, 14440 columns, 49842 nonzeros
Presolved model has 2000 quadratic constraint(s)
Variable types: 12350 continuous, 2090 integer (2090 binary)

Root relaxation: objective 2.375914e+04, 7057 iterations, 0.19 seconds (0.27 work units)

    Nodes    |    Current Node    |     Objective Bounds      |     Work
 Expl Unexpl |  Obj  Depth IntInf | Incumbent    BestBd   Gap | It/Node Time

     0     0 23759.1429    0   10          - 23759.1429      -     -    0s
     0     0 323965.872    0  537          - 323965.872      -     -    1s
     0     0 324340.836    0  534          - 324340.836      -     -    1s
     0     0 533097.176    0  512          - 533097.176      -     -    1s
     0     0 533126.597    0  379          - 533126.597      -     -    1s
     0     0 533600.369    0  327          - 533600.369      -     -    1s
     0     0 533601.007    0  327          - 533601.007      -     -    1s
     0     0 533805.565    0  322          - 533805.565      -     -    1s
     0     0 533806.097    0  322          - 533806.097      -     -    1s
     0     0 533806.097    0  322          - 533806.097      -     -    8s
     0     2 533806.097    0  322          - 533806.097      -     -    9s
    74    81 534505.001   15  216          - 533893.429      -   118   10s
H  292   245                    534030.16671 533893.429  0.03%  47.0   10s
*  292   245              88    534030.16671 533893.429  0.03%  47.0   10s
H  307   245                    534029.58925 533893.429  0.03%  45.6   10s
*  307   245              84    534029.58925 533893.429  0.03%  45.6   10s

Cutting planes:
  Gomory: 4
  Implied bound: 215
  MIR: 126
  Flow cover: 96

Explored 328 nodes (32596 simplex iterations) in 11.42 seconds (10.47 work units)
Thread count was 4 (of 128 available processors)

Solution count 3: 534030 534030 534030 

Optimal solution found (tolerance 1.00e-03)
Warning: max constraint violation (5.4211e-07) exceeds tolerance
Best objective 5.340295892516e+05, best bound 5.338934291449e+05, gap 0.0255%
